82 75 32 150 108 197 18 181 93 199 78 136 88 16 119 65 87 179 145 143 174 137 125 131 46 177 101 27 157 193 130 41 4 110 183 114 58 77 79 80 162 66 132 13 164 86 135 60 5 141 161 21 25 42 144 187 146 194 63 104 98 129 48 56 71 29 99 151 112 147 8 6 26 2 19 74 127 102 76 94 190 167 149 169 185 92 111 33 90 100 23 117 47 39 139 54 69 165 3 186 120 95 152 126 7 83 175 9 35 124 20 30 34 133 36 156 121 116 148 178 55 57 134 40 189 163 170 155 22 49 89 61 28 107 70 73 59 0 118 44 138 176 24 106 91 50 153 17 15 37 11 52 180 105 96 195 51 72 154 171 43 191 142 192 115 45 64 128 85 12 168 172 10 14 196 109 159 97 173 1 31 103 160 184 67 38 166 140 182 122 188 123 62 81 84 113 198 53 68 158 

